swarm_exploration/utils/lkh_mtsp_solver/resource/amtsp3_2.atsp
NAME : pairopt
TYPE : ACVRP
DIMENSION : 6
EDGE_WEIGHT_TYPE : EXPLICIT
EDGE_WEIGHT_FORMAT : FULL_MATRIX
CAPACITY : 249
VEHICLES : 2
EDGE_WEIGHT_SECTION
100000 -100000 -100000 100000 100000 100000 
100000 100000 1000000 -129 332 335 
100000 1000000 100000 571 1752 308 
0 0 0 100000 190 260 
0 0 0 190 100000 384 
0 0 0 260 384 100000 
DEMAND_SECTION
1 0
2 0
3 0
4 210
5 80
6 42
DEPOT_SECTION
1
EOF