swarm_exploration/utils/lkh_mtsp_solver/resource/amtsp3_2.tour
NAME : pairopt.-199437.tour
COMMENT : Length = -199437
COMMENT : Found by LKH-3 [Keld Helsgaun] Wed Oct 23 18:57:56 2024
TYPE : TOUR
DIMENSION : 7
TOUR_SECTION
1
3
6
5
7
2
4
-1
EOF
